
Gurobi 13.0.0 (linux64) logging started Thu Jan 15 00:19:15 2026

Set parameter LogFile to value "../experiments/network-n_30_s_1_rp_0-app_set-id_27_14_apps/submip_40_epr1_model_gurobi.log"
Set parameter TimeLimit to value 8.9325228031899314e+02
Gurobi Optimizer version 13.0.0 build v13.0.0rc1 (linux64 - "Ubuntu 24.04.3 LTS")

CPU model: Intel(R) Core(TM) Ultra 7 165H, instruction set [SSE2|AVX|AVX2]
Thread count: 22 physical cores, 22 logical processors, using up to 22 threads

Non-default parameters:
TimeLimit  8.9325228031899314e+02
LogToConsole  0

Academic license 2539022 - for non-commercial use only - registered to al___@studenti.unimi.it
Optimize a model with 7634 rows, 2730 columns and 19095 nonzeros (Min)
Model fingerprint: 0x90cfe741
Model has 2730 linear objective coefficients
Model has 100 quadratic constraints
Variable types: 0 continuous, 2730 integer (2730 binary)
Coefficient statistics:
  Matrix range     [1e+00, 9e+02]
  QMatrix range    [5e+01, 2e+02]
  Objective range  [1e+01, 2e+02]
  Bounds range     [1e+00, 1e+00]
  RHS range        [1e+00, 1e+09]
  QRHS range       [1e+02, 6e+02]

MIP start from previous solve did not produce a new incumbent solution
MIP start from previous solve violates constraint fixed_app_8_microservice_4 by 1.000000000

Presolve removed 7411 rows and 2097 columns
Presolve time: 0.02s
Presolved: 3895 rows, 4208 columns, 22919 nonzeros
Variable types: 0 continuous, 4208 integer (4208 binary)

Root relaxation: objective 3.279759e+03, 515 iterations, 0.01 seconds (0.02 work units)

    Nodes    |    Current Node    |     Objective Bounds      |     Work
 Expl Unexpl |  Obj  Depth IntInf | Incumbent    BestBd   Gap | It/Node Time

     0     0 3279.75932    0   68          - 3279.75932      -     -    0s
H    0     0                    3838.0000000 3279.75932  14.5%     -    0s
     0     0 3296.97231    0  116 3838.00000 3296.97231  14.1%     -    0s
H    0     0                    3758.0000000 3299.37007  12.2%     -    0s
     0     0 3299.37007    0  112 3758.00000 3299.37007  12.2%     -    0s
     0     0 3299.54361    0  116 3758.00000 3299.54361  12.2%     -    0s
H    0     0                    3753.0000000 3299.54361  12.1%     -    0s
     0     0 3317.47109    0  132 3753.00000 3317.47109  11.6%     -    0s
     0     0 3320.51152    0  136 3753.00000 3320.51152  11.5%     -    0s
     0     0 3320.59261    0  151 3753.00000 3320.59261  11.5%     -    0s
     0     0 3335.64238    0  149 3753.00000 3335.64238  11.1%     -    0s
     0     0 3336.74720    0  138 3753.00000 3336.74720  11.1%     -    0s
     0     0 3341.06950    0  157 3753.00000 3341.06950  11.0%     -    1s
     0     0 3341.26412    0  156 3753.00000 3341.26412  11.0%     -    1s
     0     0 3341.26412    0  145 3753.00000 3341.26412  11.0%     -    1s
H    0     0                    3749.0000000 3341.26412  10.9%     -    1s
H    0     0                    3742.0000000 3341.26412  10.7%     -    1s
     0     2 3341.26412    0  142 3742.00000 3341.26412  10.7%     -    1s
H   55    91                    3735.0000000 3345.61602  10.4%   132    1s
H   81    91                    3699.0000000 3345.61602  9.55%   119    1s
H  165   182                    3453.0000000 3345.61602  3.11%   101    1s
H  612   608                    3432.0000000 3345.61602  2.52%  67.9    2s
H  726   701                    3429.0000000 3345.99267  2.42%  64.2    2s
*  926   873              53    3421.0000000 3345.99267  2.19%  60.6    2s
H  945   925                    3398.0000000 3345.99267  1.53%  60.1    2s
H 1414  1079                    3392.0000000 3347.82532  1.30%  59.7    2s
H 3370  1538                    3390.0000000 3360.52451  0.87%  56.8    4s
  4107  1860 3368.05719   12  107 3390.00000 3362.67810  0.81%  55.3    5s
H 4731  1889                    3384.0000000 3362.84825  0.63%  57.6    8s
  6388  1600 3378.92003   30   74 3384.00000 3372.72587  0.33%  56.8   10s

Cutting planes:
  Lift-and-project: 1
  Cover: 65
  Clique: 7
  MIR: 108
  Knapsack: 4
  StrongCG: 35
  Flow cover: 48
  GUB cover: 5
  Inf proof: 1
  Zero half: 35
  RLT: 38
  Relax-and-lift: 34
  BQP: 18

Explored 7743 nodes (424918 simplex iterations) in 10.61 seconds (8.93 work units)
Thread count was 22 (of 22 available processors)

Solution count 10: 3384 3390 3392 ... 3735

Optimal solution found (tolerance 1.00e-04)
Best objective 3.384000000000e+03, best bound 3.384000000000e+03, gap 0.0000%

User-callback calls 18187, time in user-callback 0.02 sec
